NAME : in_house_8_7
TYPE : TSP
DIMENSION : 8
EDGE_WEIGHT_TYPE : EXPLICIT
EDGE_WEIGHT_FORMAT : UPPER_ROW
COMMENT : INVERSION_SHIFT=4
EDGE_WEIGHT_SECTION
3
12
9
55
48
47
16
53
58
21
5
26
33
39
33
50
4
40
19
54
49
63
4
30
26
42
41
14
